c SAT Generator for power-law distributed variable frequencies
c -g u -v 20 -c 420 -k 5 -p 2.750000 -b 3.200000 -f 5uf20-420/5uf20-420-62 -u 1 -U 1 -s 3044390945
p cnf 20 420
2 -6 -14 -16 18 0
-3 -5 8 -13 -18 0
-2 -3 -7 16 -20 0
-1 2 11 12 -19 0
7 11 17 18 20 0
5 6 13 15 -18 0
2 6 -12 15 -19 0
2 -5 9 -11 14 0
5 10 12 13 14 0
5 9 15 -17 -18 0
4 -5 -7 -12 14 0
-1 5 6 8 -10 0
2 -3 -11 -14 -19 0
4 -6 7 19 20 0
-4 -9 14 -17 -20 0
-7 11 -17 18 -19 0
-7 8 12 19 20 0
-1 -4 14 -15 17 0
1 8 9 10 -19 0
2 -3 8 -11 16 0
8 -17 -18 -19 -20 0
-5 -7 12 -19 -20 0
-2 -3 -14 -15 -16 0
3 -6 7 8 19 0
-4 6 -7 -9 -10 0
9 -13 -16 17 20 0
-2 4 5 9 -11 0
1 7 -8 11 -13 0
-9 10 11 -15 -18 0
2 -4 -13 -15 16 0
3 -6 7 -8 10 0
-2 -6 13 -15 19 0
-4 6 -9 11 20 0
-1 2 -4 8 -17 0
2 -3 -5 -10 20 0
2 9 10 -15 19 0
-8 -9 -11 12 17 0
-2 4 -10 11 -14 0
-8 10 -11 15 17 0
1 -3 8 -11 18 0
-3 11 13 -16 20 0
-4 -9 -14 16 -19 0
-10 -15 16 -17 20 0
-3 -6 -12 -18 -20 0
1 -2 16 17 -18 0
-2 3 -13 15 -19 0
-4 -9 -12 13 16 0
4 -10 -14 -18 -20 0
3 -5 -11 -12 -13 0
-5 11 -12 -14 15 0
1 2 6 -7 17 0
-1 4 -8 -18 19 0
3 -4 -10 -11 -19 0
-1 -4 10 -11 19 0
1 -5 -15 17 19 0
-3 4 -5 -10 -15 0
-5 13 -15 -17 19 0
4 6 8 -10 16 0
1 -4 -11 12 -16 0
1 -6 -8 11 20 0
-1 -4 7 16 20 0
1 -10 14 15 20 0
-1 -2 -7 -17 18 0
2 3 4 -16 -19 0
-2 -6 -8 -19 -20 0
2 5 -12 13 20 0
1 -5 12 14 -17 0
8 11 13 -16 20 0
-1 -4 -5 -6 -16 0
-1 -5 10 16 18 0
-9 -10 -14 18 -20 0
1 3 4 -5 17 0
-4 5 8 -11 -20 0
3 -4 -7 -9 -18 0
2 -7 8 15 16 0
1 -7 9 14 -17 0
2 8 10 15 19 0
-2 -9 -12 -17 -18 0
-6 -7 10 17 -18 0
3 -10 -14 18 -19 0
-6 -7 -9 19 20 0
2 -4 8 13 14 0
-4 11 -12 18 20 0
1 -2 -4 -11 12 0
-4 -11 -13 -17 -20 0
-3 11 12 -19 -20 0
1 6 15 -16 17 0
-7 -12 -14 16 17 0
-2 -7 8 -10 11 0
-3 -10 12 -15 16 0
1 4 7 8 -16 0
5 -6 -7 12 -15 0
-3 -4 9 14 -18 0
7 -9 -12 13 20 0
2 8 9 13 -18 0
-6 -7 9 -11 13 0
3 -5 -6 -9 10 0
1 6 -11 -16 -18 0
-2 -3 4 7 -15 0
2 9 -11 -15 19 0
7 13 14 -15 -18 0
-3 -9 -10 18 19 0
-3 6 -11 -12 -15 0
1 10 13 -16 20 0
11 14 -15 -16 -18 0
1 -7 8 -16 -18 0
-2 9 12 -17 -19 0
-2 4 11 17 18 0
-3 11 -14 15 19 0
7 -8 -15 -18 -19 0
-3 -6 -11 -14 16 0
-3 -6 9 10 12 0
9 12 -13 -15 16 0
-1 3 -7 -9 -10 0
-1 10 11 16 17 0
-3 5 -12 17 -20 0
-2 -5 -8 11 -18 0
4 8 -9 -11 -16 0
5 -10 16 17 -20 0
2 9 -10 12 -14 0
2 -5 -8 11 -13 0
8 10 -12 -16 20 0
6 -11 -14 -17 -20 0
6 -7 11 -14 16 0
1 4 -6 -11 19 0
2 -5 7 16 -17 0
2 -8 -11 13 -17 0
-2 -3 7 17 -19 0
-5 6 12 -13 -16 0
2 9 10 -12 19 0
6 -7 -10 -17 -20 0
3 7 9 16 -17 0
-11 14 16 -19 20 0
-2 3 5 -17 18 0
-2 -6 9 -10 17 0
-8 11 13 15 -18 0
-1 2 3 -16 19 0
-1 -7 -11 -13 -15 0
-3 5 -8 10 12 0
-3 -16 -18 19 20 0
4 5 6 13 -17 0
7 -9 12 16 20 0
-6 -13 -14 17 18 0
10 15 -16 -17 -20 0
4 -6 -17 18 19 0
-5 -11 12 16 -17 0
-3 -6 -11 -16 -18 0
-1 2 6 -11 13 0
1 11 -17 -19 -20 0
-1 7 -8 -11 16 0
-8 -11 -16 19 20 0
-10 -11 12 13 19 0
-3 6 13 -19 -20 0
-7 9 13 18 19 0
1 3 11 -18 -19 0
1 -7 15 -17 18 0
-3 -4 8 -11 -12 0
-2 -4 12 16 -18 0
-2 4 8 13 -14 0
-2 4 -6 7 18 0
5 14 16 19 -20 0
-3 4 5 12 -19 0
3 13 -14 17 19 0
-4 6 -7 10 13 0
-2 -5 -12 -16 -20 0
3 9 -11 16 -19 0
5 7 -9 11 19 0
-3 5 -7 10 -18 0
-1 10 13 -16 -20 0
3 -4 7 -10 13 0
-2 -3 -12 17 19 0
7 -12 -15 18 -19 0
-3 8 -12 -13 20 0
3 -7 -8 11 -20 0
-3 -4 7 14 -19 0
-1 -2 -12 16 17 0
1 -2 -7 9 10 0
-4 5 -8 -9 -18 0
2 3 -9 -15 -20 0
-10 -12 -13 -19 -20 0
1 -2 -11 -12 17 0
-4 7 -10 11 -17 0
1 -8 13 19 -20 0
-3 5 12 -14 -15 0
-2 -6 -8 12 15 0
8 -9 -10 13 -17 0
2 3 4 -16 -18 0
-2 -8 10 13 19 0
-2 -3 8 -13 17 0
-1 -2 3 11 -14 0
1 -6 -8 10 20 0
2 13 15 -16 20 0
5 9 -11 -13 -19 0
-3 -6 8 10 14 0
4 6 -11 -17 18 0
4 -5 -6 -9 -18 0
7 13 -15 -16 -20 0
8 -9 -12 -14 19 0
-1 4 -11 16 -19 0
-3 7 -8 15 19 0
-4 -5 6 -17 18 0
-4 -5 12 14 -18 0
10 -11 -15 -16 -18 0
-2 -7 11 -17 20 0
-3 5 -14 -16 -17 0
3 10 11 12 16 0
-3 9 -11 15 18 0
4 7 9 -11 18 0
-3 4 -7 -14 20 0
1 -4 -13 14 -15 0
6 13 16 -17 -18 0
5 8 -13 16 18 0
-1 -3 -7 -15 -20 0
4 -9 13 -15 -20 0
2 -4 9 10 -17 0
2 -3 -4 11 -14 0
-3 8 9 -17 -20 0
5 -10 12 -14 -18 0
1 -8 -15 -16 -19 0
-2 -7 -11 13 19 0
3 -10 12 -15 -18 0
-7 8 15 -17 -18 0
-4 -11 -13 -18 20 0
1 -9 -17 -18 -20 0
1 -7 9 -12 18 0
-4 -6 12 18 20 0
-1 -2 -5 -9 13 0
-7 -10 11 18 -20 0
-5 7 -11 -14 -20 0
1 13 15 -18 20 0
-6 -10 -11 -12 18 0
-6 -9 -11 16 20 0
-9 -11 12 14 15 0
-1 5 8 -12 -18 0
4 -9 -14 18 -19 0
-5 6 -7 -11 18 0
-2 -9 10 11 -14 0
-3 -4 5 -11 -19 0
1 -6 -8 -17 -20 0
8 -9 10 -12 -13 0
-7 8 -13 -16 20 0
-1 -11 -14 -16 -19 0
-2 -13 -16 19 20 0
-9 11 -12 -14 20 0
-2 -8 10 14 20 0
1 4 5 -18 -20 0
-1 -4 -8 -9 15 0
7 10 -11 12 -19 0
-1 10 -14 15 -19 0
-1 -4 10 11 14 0
-2 -6 7 14 20 0
-1 7 12 16 -17 0
3 -6 12 16 -19 0
2 3 -5 -6 20 0
-4 13 -18 19 20 0
-4 7 8 15 -19 0
1 3 6 18 -20 0
-2 4 5 17 20 0
-3 -6 -9 12 20 0
-1 -8 -11 -16 -20 0
-2 4 -8 -11 12 0
3 5 -6 -14 18 0
3 -4 -6 -8 14 0
-2 7 -12 14 19 0
-1 -2 -5 -13 -16 0
4 -7 12 15 -18 0
-6 -9 -10 -17 19 0
-11 16 17 19 20 0
-6 7 15 19 -20 0
-6 8 -11 14 19 0
4 -8 9 -13 -16 0
3 5 6 -10 -19 0
-2 -4 -7 -11 18 0
-4 7 11 -14 -15 0
1 8 -10 11 15 0
3 4 5 -15 19 0
6 13 14 15 -19 0
-3 -4 -7 -9 -17 0
6 9 12 -15 19 0
5 -6 10 11 -12 0
6 -7 13 16 -19 0
2 6 10 -14 -20 0
2 -9 -11 -12 17 0
2 -11 14 15 -19 0
-6 10 -11 -19 20 0
3 4 10 -13 -17 0
2 7 -11 -14 -16 0
5 6 11 -17 -19 0
-2 6 7 -11 -15 0
3 7 9 13 20 0
1 4 5 -6 17 0
6 -10 13 17 -20 0
-2 8 10 19 -20 0
-4 5 -8 13 -18 0
5 9 12 13 15 0
-8 12 -14 18 -19 0
-1 3 7 -11 -14 0
1 -3 5 -16 -17 0
-9 -13 16 -17 -19 0
2 7 -9 11 12 0
2 -4 -8 -9 10 0
4 5 7 15 -20 0
2 4 10 -17 -19 0
7 -13 18 -19 20 0
5 -7 -9 12 19 0
-1 5 -7 -18 19 0
1 10 -15 16 17 0
9 -10 -13 17 -19 0
-2 6 10 -18 20 0
-1 -5 -8 14 -20 0
1 5 -11 13 19 0
-3 -6 -13 15 17 0
2 6 9 -14 16 0
-5 6 -7 17 -18 0
-8 11 14 -16 -19 0
-2 7 -11 15 20 0
-1 -4 9 -18 -19 0
1 -3 6 9 -14 0
-2 3 16 -17 19 0
-5 8 -9 -12 -15 0
4 -6 -13 15 -18 0
3 -11 -13 -15 20 0
2 8 10 -11 13 0
3 7 12 -13 -17 0
-2 5 -9 11 -19 0
-6 8 10 13 20 0
2 4 -6 18 -20 0
4 -11 13 -14 20 0
8 10 -13 15 -16 0
-1 -4 9 -16 17 0
-2 -3 11 19 -20 0
-3 5 6 8 19 0
-3 4 -7 16 19 0
-2 -4 6 -14 -17 0
3 6 -9 -10 -19 0
1 -4 -5 -13 20 0
-12 -13 -16 17 19 0
-4 -5 -16 17 19 0
-3 8 -12 13 -18 0
-6 -7 12 14 18 0
-2 3 -7 -13 -18 0
4 10 -12 -17 19 0
2 11 -12 14 -19 0
-2 -10 -13 15 20 0
3 -9 13 16 19 0
-3 5 9 -16 -19 0
-4 13 15 -16 17 0
6 -12 13 17 -18 0
1 4 13 14 -18 0
-3 10 -12 18 -20 0
-6 7 8 -13 19 0
-2 8 -11 -12 16 0
1 4 -6 -8 18 0
-1 5 -7 17 -19 0
5 12 13 -18 -19 0
-8 -9 11 -15 18 0
4 -9 11 13 -14 0
2 -4 -6 -17 20 0
1 4 -7 -11 12 0
-1 2 -6 8 -10 0
2 5 6 -13 20 0
-5 -7 15 -17 19 0
-5 9 12 -13 16 0
-1 -3 -4 -10 18 0
4 -12 13 -14 17 0
-1 -6 14 -17 19 0
10 -12 -13 -14 -18 0
1 2 6 8 -11 0
-1 -6 8 -12 20 0
-3 10 15 18 -19 0
4 5 -10 -14 17 0
1 -2 3 -8 20 0
-1 -2 -3 -9 -14 0
-2 5 6 -7 -14 0
-5 13 14 -16 -17 0
-2 -5 14 16 -17 0
1 -3 -5 -16 -20 0
-3 10 -17 18 19 0
-1 -5 -14 17 -18 0
-3 4 -10 18 20 0
-10 -11 -14 16 -19 0
2 11 -13 16 -19 0
1 -5 -8 -9 15 0
-5 9 -12 -15 -16 0
6 -8 -11 -13 20 0
-1 -2 8 10 -14 0
1 5 8 11 19 0
1 -6 -12 -13 19 0
6 -7 -11 -12 -13 0
-4 -7 -8 9 10 0
-1 -3 -11 -12 -18 0
1 -7 14 -18 20 0
-3 -9 -15 -18 -20 0
3 9 -12 -14 -20 0
-1 -9 11 -17 18 0
-4 6 -10 15 18 0
-4 -13 -16 -18 20 0
1 4 8 18 -19 0
-3 4 -10 -14 -17 0
-2 7 9 -16 18 0
-5 -6 -7 -13 18 0
1 2 -5 -14 20 0
2 3 -4 5 17 0
-1 9 10 15 20 0
-1 -10 -12 -14 -20 0
-3 -9 11 -19 -20 0
1 -2 -3 5 -10 0
-1 -2 -6 -14 -20 0
2 -6 13 -14 -17 0
3 -4 -13 -18 -19 0
2 9 15 16 -20 0
5 -8 10 -15 -17 0
-4 -5 -9 13 20 0
-1 6 14 16 18 0
4 -5 8 14 20 0
2 -10 -14 15 17 0
2 4 -16 -18 -19 0
1 -10 12 -17 -18 0
-5 8 11 -16 18 0
6 8 15 -16 20 0
